p cnf 38 53
38 0
-38 32 0
-38 37 0
-32 23 0
-32 31 0
-23 14 0
-23 22 0
-14 5 0
-14 13 0
-5 3 0
-5 -4 0
-3 1 0
-3 -2 0
-13 10 0
-13 12 0
-10 7 0
-10 9 0
-7 -6 4 0
-7 6 -4 0
-9 -8 1 0
-9 8 -1 0
-12 -11 2 0
-12 11 -2 0
-22 19 0
-22 21 0
-19 16 0
-19 18 0
-16 -15 11 0
-16 15 -11 0
-18 -17 6 0
-18 17 -6 0
-21 -20 8 0
-21 20 -8 0
-31 28 0
-31 30 0
-28 25 0
-28 27 0
-25 -24 20 0
-25 24 -20 0
-27 -26 15 0
-27 26 -15 0
-30 -29 17 0
-30 29 -17 0
-37 35 0
-37 36 0
-35 33 0
-35 34 0
-33 -24 1 0
-33 24 -1 0
-34 -26 2 0
-34 26 -2 0
-36 -29 4 0
-36 29 -4 0
